Gurobi Optimizer version 9.1.2 build v9.1.2rc0 (linux64)
Thread count: 36 physical cores, 72 logical processors, using up to 32 threads
Optimize a model with 12 rows, 57 columns and 590 nonzeros
Model fingerprint: 0xf32eec78
Model has 47 quadratic constraints
Coefficient statistics:
  Matrix range     [2e-05, 3e+00]
  QMatrix range    [1e+00, 1e+00]
  QLMatrix range   [1e+00, 1e+00]
  Objective range  [8e-03, 7e-01]
  Bounds range     [1e+00, 1e+00]
  RHS range        [1e+00, 1e+00]
Presolve removed 9 rows and 0 columns

Continuous model is non-convex -- solving as a MIP.

Presolve removed 9 rows and 0 columns
Presolve time: 0.00s
Presolved: 189 rows, 57 columns, 443 nonzeros
Presolved model has 47 bilinear constraint(s)
Variable types: 57 continuous, 0 integer (0 binary)

Root relaxation: objective -1.743721e+00, 44 iterations, 0.00 seconds

    Nodes    |    Current Node    |     Objective Bounds      |     Work
 Expl Unexpl |  Obj  Depth IntInf | Incumbent    BestBd   Gap | It/Node Time

     0     0   -1.74372    0   38          -   -1.74372      -     -    0s
H    0     0                       0.6147548   -1.74372   384%     -    0s
     0     0   -1.64739    0    1    0.61475   -1.64739   368%     -    0s
H    0     0                      -1.6450460   -1.64739  0.14%     -    0s
     0     0     cutoff    0        -1.64505   -1.64505  0.00%     -    0s

Cutting planes:
  RLT: 25
  BQP: 3

Explored 1 nodes (76 simplex iterations) in 0.01 seconds
Thread count was 32 (of 72 available processors)

Solution count 2: -1.64505 0.614755 
No other solutions better than -1.64505

Optimal solution found (tolerance 1.00e-04)
Best objective -1.645045978473e+00, best bound -1.645045978473e+00, gap 0.0000%

User-callback calls 78, time in user-callback 0.00 sec
Gurobi Optimizer version 9.1.2 build v9.1.2rc0 (linux64)
Thread count: 36 physical cores, 72 logical processors, using up to 32 threads
Optimize a model with 24 rows, 125 columns and 2580 nonzeros
Model fingerprint: 0xd55bf636
Model has 105 quadratic constraints
Coefficient statistics:
  Matrix range     [4e-06, 5e+01]
  QMatrix range    [1e+00, 1e+00]
  QLMatrix range   [1e+00, 1e+00]
  Objective range  [1e-02, 1e+00]
  Bounds range     [1e+00, 1e+00]
  RHS range        [1e+00, 1e+00]
Presolve removed 10 rows and 0 columns

Continuous model is non-convex -- solving as a MIP.

Presolve removed 10 rows and 0 columns
Presolve time: 0.00s
Presolved: 429 rows, 125 columns, 2142 nonzeros
Presolved model has 105 bilinear constraint(s)
Variable types: 125 continuous, 0 integer (0 binary)

Root relaxation: objective -5.404172e+00, 144 iterations, 0.00 seconds

    Nodes    |    Current Node    |     Objective Bounds      |     Work
 Expl Unexpl |  Obj  Depth IntInf | Incumbent    BestBd   Gap | It/Node Time

     0     0   -5.40417    0   75          -   -5.40417      -     -    0s
H    0     0                       0.2690655   -5.40417  2108%     -    0s
     0     0   -4.15209    0   83    0.26907   -4.15209  1643%     -    0s
H    0     0                      -0.9006649   -4.15209   361%     -    0s
     0     0   -4.07592    0   88   -0.90066   -4.07592   353%     -    0s
     0     0   -3.91817    0   54   -0.90066   -3.91817   335%     -    0s
H    0     0                      -1.6118882   -3.91817   143%     -    0s
     0     0   -3.91732    0   51   -1.61189   -3.91732   143%     -    0s
     0     0   -3.88964    0   61   -1.61189   -3.88964   141%     -    0s
     0     0   -3.88927    0   52   -1.61189   -3.88927   141%     -    0s
     0     0   -3.88477    0   53   -1.61189   -3.88477   141%     -    0s
H    0     0                      -1.8766562   -3.88477   107%     -    0s
     0     0   -3.88468    0   61   -1.87666   -3.88468   107%     -    0s
     0     0   -3.88246    0   55   -1.87666   -3.88246   107%     -    0s
H    0     0                      -1.9110418   -3.88246   103%     -    0s
     0     0   -3.88212    0   61   -1.91104   -3.88212   103%     -    0s
H    0     0                      -3.1716252   -3.88212  22.4%     -    0s
H    0     0                      -3.2020783   -3.88212  21.2%     -    0s
H    0     0                      -3.2407674   -3.88212  19.8%     -    0s
H    0     0                      -3.2541539   -3.88212  19.3%     -    0s
     0     2   -3.88212    0   61   -3.25415   -3.88212  19.3%     -    0s
*  248    70              13      -3.2548821   -3.27515  0.62%  24.7    0s
*  305   109              14      -3.2553908   -3.27515  0.61%  21.1    0s
*  327   146              17      -3.2578716   -3.27515  0.53%  20.0    0s
*  342   146              17      -3.2582101   -3.27515  0.52%  19.4    0s
*  359   146              16      -3.2630536   -3.27515  0.37%  18.6    0s
*  398    89              20      -3.2664414   -3.27515  0.27%  17.1    0s
*  482    55              21      -3.2675907   -3.27512  0.23%  14.5    0s
*  556    79              19      -3.2707765   -3.27512  0.13%  13.1    0s
*  655    41              21      -3.2709894   -3.27512  0.13%  11.7    0s
*  689    41              22      -3.2710151   -3.27512  0.13%  11.3    0s
*  709    31              19      -3.2711976   -3.27512  0.12%  11.1    0s
*  710    31              19      -3.2712491   -3.27512  0.12%  11.0    0s
*  728    31              22      -3.2712710   -3.27512  0.12%  10.9    0s
*  758    31              22      -3.2712711   -3.27512  0.12%  10.6    0s
*  809    14              23      -3.2713166   -3.27512  0.12%  10.1    0s
*  812    14              21      -3.2713316   -3.27512  0.12%  10.1    0s
*  862     2              23      -3.2713338   -3.27137  0.00%   9.7    0s
*  865     2              23      -3.2713344   -3.27137  0.00%   9.7    0s
*  868     2              22      -3.2713359   -3.27135  0.00%   9.6    0s

Cutting planes:
  RLT: 43
  BQP: 9
  PSD: 21

Explored 876 nodes (8725 simplex iterations) in 0.41 seconds
Thread count was 32 (of 72 available processors)

Solution count 10: -3.27134 -3.27133 -3.27133 ... -3.27102

Optimal solution found (tolerance 1.00e-04)
Best objective -3.271335852541e+00, best bound -3.271346166027e+00, gap 0.0003%

User-callback calls 2013, time in user-callback 0.00 sec



objective value: -3.2713358525406564
objective bound: -3.2713461660273393
x_opt: [1.0, 0.0, 1.0, 0.0, 0.186665169643876, 0.0, 1.0, 1.0, 0.468384775957739, 0.0, 0.0, 0.0, 0.7729781293031242, 0.0, 0.4544312110892207, 0.3147890403557875, 0.0, 0.0, 0.0, 0.0]
GUROBI solution time: 0.4147369861602783




